p cnf 13 23
13 -11 7 0
13 -11 -5 0
13 10 6 0
-13 -6 -4 0
-13 -5 2 0
-13 -3 2 0
-12 -11 -2 0
12 -10 7 0
12 -10 -1 0
12 10 1 0
-11 -8 -2 0
-11 6 1 0
10 -8 -7 0
-10 8 4 0
-10 8 -2 0
10 7 1 0
9 5 4 0
-8 7 6 0
8 -7 -1 0
8 -5 -4 0
-7 -6 4 0
-7 5 1 0
6 3 1 0
